aij2024/models/minizinc-extra/tiny-cvrp.dzn
numberLocations = 4;
costs = array2d(0..numberLocations, 0..numberLocations, [|0,14,21,33,22
|14,0,12,19,12
|21,12,0,15,22
|33,19,15,0,21
|22,12,22,21,0
|]);
orderWeights=[5,6,4,6];
vehicleCapacity=10;
